% Auto-generated by scripts/generate_dzn.py
% problem_type   = regex
% instance       = regex_98
% source_json    = instances_json/2_high_blowup/regex_98.json
% blowup         = 129.8235294117647
% representation = NFA

mode = 1;

var_count = 30;
Q = 17;
S = 3;
q0 = 1;
F = {17};
d_dfa = array2d(1..17, 1..3, [
  0, 0, 0,
  0, 0, 0,
  0, 0, 0,
  0, 0, 0,
  0, 0, 0,
  0, 0, 0,
  0, 0, 0,
  0, 0, 0,
  0, 0, 0,
  0, 0, 0,
  0, 0, 0,
  0, 0, 0,
  0, 0, 0,
  0, 0, 0,
  0, 0, 0,
  0, 0, 0,
  0, 0, 0
]);
d_nfa = array2d(1..17, 1..3, [
  {1, 2}, {1}, {1},
  {}, {3}, {},
  {4}, {}, {},
  {5}, {5}, {5},
  {6}, {6}, {6},
  {7}, {7}, {7},
  {8}, {8}, {8},
  {9}, {9}, {9},
  {10}, {10}, {10},
  {11}, {11}, {11},
  {12}, {12}, {12},
  {13}, {13}, {13},
  {14}, {14}, {14},
  {15}, {15}, {15},
  {16}, {16}, {16},
  {17}, {17}, {17},
  {}, {}, {}
]);
